p cnf 200 398
e 1 2 3 4 5 6 7 8 9 10 11 12 13 14 15 16 17 18 19 20 21 22 23 24 25 26 27 28 29 30 31 32 33 34 35 36 37 38 39 40 41 42 43 44 45 46 47 48 49 50 51 52 53 54 55 56 57 58 59 60 61 62 63 64 65 66 67 68 69 70 71 72 73 74 75 76 77 78 79 80 81 82 83 84 85 86 87 88 89 90 91 92 93 94 95 96 97 98 99 100 0
a 101 0
e 102 103 104 105 106 107 108 109 110 111 112 113 114 115 116 117 118 119 120 121 122 123 124 125 126 127 128 129 130 131 132 133 134 135 136 137 138 139 140 141 142 143 144 145 146 147 148 149 150 151 152 153 154 155 156 157 158 159 160 161 162 163 164 165 166 167 168 169 170 171 172 173 174 175 176 177 178 179 180 181 182 183 184 185 186 187 188 189 190 191 192 193 194 195 196 197 198 199 200 0
-1 -2 -102 0
-1 2 102 0
1 -2 102 0
1 2 -102 0
-102 -3 -103 0
-102 3 103 0
102 -3 103 0
102 3 -103 0
-103 -4 -104 0
-103 4 104 0
103 -4 104 0
103 4 -104 0
-104 -5 -105 0
-104 5 105 0
104 -5 105 0
104 5 -105 0
-105 -6 -106 0
-105 6 106 0
105 -6 106 0
105 6 -106 0
-106 -7 -107 0
-106 7 107 0
106 -7 107 0
106 7 -107 0
-107 -8 -108 0
-107 8 108 0
107 -8 108 0
107 8 -108 0
-108 -9 -109 0
-108 9 109 0
108 -9 109 0
108 9 -109 0
-109 -10 -110 0
-109 10 110 0
109 -10 110 0
109 10 -110 0
-110 -11 -111 0
-110 11 111 0
110 -11 111 0
110 11 -111 0
-111 -12 -112 0
-111 12 112 0
111 -12 112 0
111 12 -112 0
-112 -13 -113 0
-112 13 113 0
112 -13 113 0
112 13 -113 0
-113 -14 -114 0
-113 14 114 0
113 -14 114 0
113 14 -114 0
-114 -15 -115 0
-114 15 115 0
114 -15 115 0
114 15 -115 0
-115 -16 -116 0
-115 16 116 0
115 -16 116 0
115 16 -116 0
-116 -17 -117 0
-116 17 117 0
116 -17 117 0
116 17 -117 0
-117 -18 -118 0
-117 18 118 0
117 -18 118 0
117 18 -118 0
-118 -19 -119 0
-118 19 119 0
118 -19 119 0
118 19 -119 0
-119 -20 -120 0
-119 20 120 0
119 -20 120 0
119 20 -120 0
-120 -21 -121 0
-120 21 121 0
120 -21 121 0
120 21 -121 0
-121 -22 -122 0
-121 22 122 0
121 -22 122 0
121 22 -122 0
-122 -23 -123 0
-122 23 123 0
122 -23 123 0
122 23 -123 0
-123 -24 -124 0
-123 24 124 0
123 -24 124 0
123 24 -124 0
-124 -25 -125 0
-124 25 125 0
124 -25 125 0
124 25 -125 0
-125 -26 -126 0
-125 26 126 0
125 -26 126 0
125 26 -126 0
-126 -27 -127 0
-126 27 127 0
126 -27 127 0
126 27 -127 0
-127 -28 -128 0
-127 28 128 0
127 -28 128 0
127 28 -128 0
-128 -29 -129 0
-128 29 129 0
128 -29 129 0
128 29 -129 0
-129 -30 -130 0
-129 30 130 0
129 -30 130 0
129 30 -130 0
-130 -31 -131 0
-130 31 131 0
130 -31 131 0
130 31 -131 0
-131 -32 -132 0
-131 32 132 0
131 -32 132 0
131 32 -132 0
-132 -33 -133 0
-132 33 133 0
132 -33 133 0
132 33 -133 0
-133 -34 -134 0
-133 34 134 0
133 -34 134 0
133 34 -134 0
-134 -35 -135 0
-134 35 135 0
134 -35 135 0
134 35 -135 0
-135 -36 -136 0
-135 36 136 0
135 -36 136 0
135 36 -136 0
-136 -37 -137 0
-136 37 137 0
136 -37 137 0
136 37 -137 0
-137 -38 -138 0
-137 38 138 0
137 -38 138 0
137 38 -138 0
-138 -39 -139 0
-138 39 139 0
138 -39 139 0
138 39 -139 0
-139 -40 -140 0
-139 40 140 0
139 -40 140 0
139 40 -140 0
-140 -41 -141 0
-140 41 141 0
140 -41 141 0
140 41 -141 0
-141 -42 -142 0
-141 42 142 0
141 -42 142 0
141 42 -142 0
-142 -43 -143 0
-142 43 143 0
142 -43 143 0
142 43 -143 0
-143 -44 -144 0
-143 44 144 0
143 -44 144 0
143 44 -144 0
-144 -45 -145 0
-144 45 145 0
144 -45 145 0
144 45 -145 0
-145 -46 -146 0
-145 46 146 0
145 -46 146 0
145 46 -146 0
-146 -47 -147 0
-146 47 147 0
146 -47 147 0
146 47 -147 0
-147 -48 -148 0
-147 48 148 0
147 -48 148 0
147 48 -148 0
-148 -49 -149 0
-148 49 149 0
148 -49 149 0
148 49 -149 0
-149 -50 -150 0
-149 50 150 0
149 -50 150 0
149 50 -150 0
-150 -51 -151 0
-150 51 151 0
150 -51 151 0
150 51 -151 0
-151 -52 -152 0
-151 52 152 0
151 -52 152 0
151 52 -152 0
-152 -53 -153 0
-152 53 153 0
152 -53 153 0
152 53 -153 0
-153 -54 -154 0
-153 54 154 0
153 -54 154 0
153 54 -154 0
-154 -55 -155 0
-154 55 155 0
154 -55 155 0
154 55 -155 0
-155 -56 -156 0
-155 56 156 0
155 -56 156 0
155 56 -156 0
-156 -57 -157 0
-156 57 157 0
156 -57 157 0
156 57 -157 0
-157 -58 -158 0
-157 58 158 0
157 -58 158 0
157 58 -158 0
-158 -59 -159 0
-158 59 159 0
158 -59 159 0
158 59 -159 0
-159 -60 -160 0
-159 60 160 0
159 -60 160 0
159 60 -160 0
-160 -61 -161 0
-160 61 161 0
160 -61 161 0
160 61 -161 0
-161 -62 -162 0
-161 62 162 0
161 -62 162 0
161 62 -162 0
-162 -63 -163 0
-162 63 163 0
162 -63 163 0
162 63 -163 0
-163 -64 -164 0
-163 64 164 0
163 -64 164 0
163 64 -164 0
-164 -65 -165 0
-164 65 165 0
164 -65 165 0
164 65 -165 0
-165 -66 -166 0
-165 66 166 0
165 -66 166 0
165 66 -166 0
-166 -67 -167 0
-166 67 167 0
166 -67 167 0
166 67 -167 0
-167 -68 -168 0
-167 68 168 0
167 -68 168 0
167 68 -168 0
-168 -69 -169 0
-168 69 169 0
168 -69 169 0
168 69 -169 0
-169 -70 -170 0
-169 70 170 0
169 -70 170 0
169 70 -170 0
-170 -71 -171 0
-170 71 171 0
170 -71 171 0
170 71 -171 0
-171 -72 -172 0
-171 72 172 0
171 -72 172 0
171 72 -172 0
-172 -73 -173 0
-172 73 173 0
172 -73 173 0
172 73 -173 0
-173 -74 -174 0
-173 74 174 0
173 -74 174 0
173 74 -174 0
-174 -75 -175 0
-174 75 175 0
174 -75 175 0
174 75 -175 0
-175 -76 -176 0
-175 76 176 0
175 -76 176 0
175 76 -176 0
-176 -77 -177 0
-176 77 177 0
176 -77 177 0
176 77 -177 0
-177 -78 -178 0
-177 78 178 0
177 -78 178 0
177 78 -178 0
-178 -79 -179 0
-178 79 179 0
178 -79 179 0
178 79 -179 0
-179 -80 -180 0
-179 80 180 0
179 -80 180 0
179 80 -180 0
-180 -81 -181 0
-180 81 181 0
180 -81 181 0
180 81 -181 0
-181 -82 -182 0
-181 82 182 0
181 -82 182 0
181 82 -182 0
-182 -83 -183 0
-182 83 183 0
182 -83 183 0
182 83 -183 0
-183 -84 -184 0
-183 84 184 0
183 -84 184 0
183 84 -184 0
-184 -85 -185 0
-184 85 185 0
184 -85 185 0
184 85 -185 0
-185 -86 -186 0
-185 86 186 0
185 -86 186 0
185 86 -186 0
-186 -87 -187 0
-186 87 187 0
186 -87 187 0
186 87 -187 0
-187 -88 -188 0
-187 88 188 0
187 -88 188 0
187 88 -188 0
-188 -89 -189 0
-188 89 189 0
188 -89 189 0
188 89 -189 0
-189 -90 -190 0
-189 90 190 0
189 -90 190 0
189 90 -190 0
-190 -91 -191 0
-190 91 191 0
190 -91 191 0
190 91 -191 0
-191 -92 -192 0
-191 92 192 0
191 -92 192 0
191 92 -192 0
-192 -93 -193 0
-192 93 193 0
192 -93 193 0
192 93 -193 0
-193 -94 -194 0
-193 94 194 0
193 -94 194 0
193 94 -194 0
-194 -95 -195 0
-194 95 195 0
194 -95 195 0
194 95 -195 0
-195 -96 -196 0
-195 96 196 0
195 -96 196 0
195 96 -196 0
-196 -97 -197 0
-196 97 197 0
196 -97 197 0
196 97 -197 0
-197 -98 -198 0
-197 98 198 0
197 -98 198 0
197 98 -198 0
-198 -99 -199 0
-198 99 199 0
198 -99 199 0
198 99 -199 0
-199 -100 -200 0
-199 100 200 0
199 -100 200 0
199 100 -200 0
101 200 0
-101 -200 0
